524 678
317 173 281 221 275 195 133 158 151 335 174 249 191 263 181 257 164 168 213 153 257 283 306 247 141 230 192 188 106 185 167 271 121 300 298
366 354 330 190 323 394 266 254 340 400 371 225 222 431 319 242 158 277 252 275 266 262 407 191 181 413 148 344 259 344 364 371 412 339 428
359 270 836 976 628 488 881 605 423 663 591 492 637 259 331 398 999 574 249 355 890 360 751 861 897 631 882 246 236 280 465 464 557 358 422